* Source:     Pyomo MPS Writer
* Format:     Free MPS
*
NAME unknown
OBJSENSE
 MIN
ROWS
 N  x9
 E  c_e_x10_
 E  c_e_x11_
 E  c_e_x12_
COLUMNS
     x1 x9 1
     x2 x9 1
     x2 c_e_x10_ 1
     x3 x9 1
     x3 c_e_x10_ 1
     x3 c_e_x11_ 1
     x4 x9 1
     x4 c_e_x10_ 1
     x4 c_e_x11_ 1
     x4 c_e_x12_ 1
     x5 x9 1
     x5 c_e_x10_ 1
     x5 c_e_x12_ 1
     x6 x9 1
     x6 c_e_x11_ 1
     x7 x9 1
     x7 c_e_x11_ 1
     x7 c_e_x12_ 1
     x8 x9 1
     x8 c_e_x12_ 1
RHS
     RHS c_e_x10_ 1
     RHS c_e_x11_ 1
     RHS c_e_x12_ 1
BOUNDS
 LO BOUND x1 0
 LO BOUND x2 0
 LO BOUND x3 0
 LO BOUND x4 0
 LO BOUND x5 0
 LO BOUND x6 0
 LO BOUND x7 0
 LO BOUND x8 0
ENDATA
